data/instances/vrp_files/train_79.vrp
NAME : 79
COMMENT : Generated instance No. 79
TYPE : CVRP
DIMENSION : 21
EDGE_WEIGHT_TYPE : EUC_2D
CAPACITY : 30
NODE_COORD_SECTION
 1 177 5
 2 366 147
 3 206 313
 4 636 398
 5 6 523
 6 921 812
 7 825 795
 8 323 765
 9 143 657
 10 641 25
 11 787 903
 12 267 812
 13 82 599
 14 485 545
 15 926 871
 16 785 273
 17 911 97
 18 853 328
 19 53 669
 20 231 243
 21 306 63
DEMAND_SECTION
1 0
2 3
3 10
4 5
5 6
6 8
7 7
8 8
9 3
10 4
11 6
12 7
13 9
14 1
15 8
16 8
17 6
18 4
19 3
20 3
21 6
DEPOT_SECTION
 1
 -1
EOF